log/Reading instance from file data/g07.dat
Number of nodes: 301
Number of edges: 3300
initialize CPLEX ... done.
Calling CPLEX solve ...
Version identifier: 12.10.0.0 | 2019-11-26 | 843d4de
CPXPARAM_Threads                                 1
CPXPARAM_TimeLimit                               3600
CPXPARAM_WorkMem                                 8192
Tried aggregator 2 times.
MIP Presolve eliminated 361 rows and 420 columns.
MIP Presolve modified 7140 coefficients.
Aggregator did 240 substitutions.
Reduced MIP has 6903 rows, 12840 columns, and 44220 nonzeros.
Reduced MIP has 6540 binaries, 6300 generals, 0 SOSs, and 0 indicators.
Presolve time = 0.05 sec. (51.33 ticks)
Found incumbent of value 30941.000000 after 0.09 sec. (93.64 ticks)
Probing fixed 0 vars, tightened 360 bounds.
Probing time = 0.11 sec. (86.20 ticks)
Tried aggregator 1 time.
Detecting symmetries...
Reduced MIP has 6903 rows, 12840 columns, and 44220 nonzeros.
Reduced MIP has 6540 binaries, 6300 generals, 0 SOSs, and 0 indicators.
Presolve time = 0.03 sec. (26.45 ticks)
Probing time = 0.01 sec. (5.22 ticks)
Cover probing fixed 0 vars, tightened 109 bounds.
Clique table members: 6301.
MIP emphasis: balance optimality and feasibility.
MIP search method: dynamic search.
Parallel mode: none, using 1 thread.
Root relaxation solution time = 0.15 sec. (261.66 ticks)

        Nodes                                         Cuts/
   Node  Left     Objective  IInf  Best Integer    Best Bound    ItCnt     Gap

*     0+    0                        30941.0000        0.0000           100.00%
      0     0      387.0667    86    30941.0000      387.0667     2950   98.75%
      0     0      401.6084    86    30941.0000     Cuts: 164     3727   98.70%
      0     0      497.7249    86    30941.0000      Cuts: 71     5392   98.39%
      0     0      590.1746    86    30941.0000     Cuts: 100     5970   98.09%
*     0+    0                        17173.0000      590.1746            96.56%
*     0+    0                        17006.0000      590.1746            96.53%
*     0+    0                        13633.0000      590.1746            95.67%
*     0+    0                        13305.0000      590.1746            95.56%
*     0+    0                         8257.0000      590.1746            92.85%
*     0+    0                         7487.0000      590.1746            92.12%
*     0+    0                         7359.0000      590.1746            91.98%
      0     0  -1.00000e+75     0     7359.0000      590.1746     5970   91.98%
      0     0      614.3725    86     7359.0000      Cuts: 45     6717   91.65%
      0     0      639.4597    86     7359.0000      Cuts: 30     7919   91.31%
Detecting symmetries...
      0     0      652.7598    86     7359.0000      Cuts: 32     9514   91.13%
      0     0      668.7414    86     7359.0000      Cuts: 17    10941   90.91%
      0     0      671.6948    86     7359.0000      Cuts: 20    11232   90.87%
      0     0      672.7334    86     7359.0000      Cuts: 10    11296   90.86%
      0     0      673.5504    86     7359.0000      Cuts: 16    11321   90.85%
      0     0      674.3958    86     7359.0000       Cuts: 4    11341   90.84%
      0     0      674.5636    86     7359.0000     Covers: 1    11344   90.83%
      0     0      674.8922    86     7359.0000       Cuts: 3    11351   90.83%
      0     0      674.8922    86     7359.0000       Cuts: 4    11357   90.83%
Detecting symmetries...
      0     2      674.8922   156     7359.0000      674.8922    11357   90.83%
Elapsed time = 4.13 sec. (5440.02 ticks, tree = 0.01 MB, solutions = 8)
      1     3      743.8706   183     7359.0000      674.8922    21077   90.83%
      4     6      743.7456   185     7359.0000      674.9079    27146   90.83%
      6     8      741.8411   187     7359.0000      677.1476    34825   90.80%
      8    10      758.9772   202     7359.0000      677.2024    49053   90.80%
     10    12      755.1221   197     7359.0000      677.2525    57518   90.80%
     12    14      759.0195   205     7359.0000      677.6137    64797   90.79%
     13    15      678.1106   165     7359.0000      677.6137    68120   90.79%
     14    16      757.1091   194     7359.0000      678.1106   103178   90.79%
     17    19      678.5400   161     7359.0000      678.1106   115261   90.79%
     18    20      757.2611   199     7359.0000      678.1106   122195   90.79%
Elapsed time = 13.59 sec. (18657.20 ticks, tree = 0.21 MB, solutions = 8)
     20    22      755.3852   195     7359.0000      678.1106   138453   90.79%
     22    24      747.0703   202     7359.0000      678.1106   153595   90.79%
     24    26      747.1070   199     7359.0000      678.1106   164894   90.79%
     26    28      748.3733   199     7359.0000      678.1106   172309   90.79%
     28    30      748.3733   199     7359.0000      678.1106   179448   90.79%
     32    34      765.8949   199     7359.0000      678.1106   205801   90.79%
     37    39      683.3789   164     7359.0000      678.1106   230374   90.79%
     38    40      748.6386   205     7359.0000      678.1106   254795   90.79%
     40    42      684.4157   180     7359.0000      678.1106   255672   90.79%
     41    43      756.3079   200     7359.0000      678.1106   262071   90.79%
Elapsed time = 27.15 sec. (37152.90 ticks, tree = 0.44 MB, solutions = 8)
     43    45      761.7010   209     7359.0000      678.1106   270646   90.79%
     45    47      764.6793   212     7359.0000      678.1106   278032   90.79%
     48    50      779.8217   205     7359.0000      678.1106   285553   90.79%
     50    52      783.4252   189     7359.0000      678.1106   295625   90.79%
     55    57      783.8471   198     7359.0000      678.1106   303831   90.79%
     57    59      776.8971   203     7359.0000      678.1106   312378   90.79%
     59    61      776.6838   198     7359.0000      678.1106   320102   90.79%
     62    64      781.0680   195     7359.0000      678.1106   328767   90.79%
     65    67      785.1684   187     7359.0000      678.1106   337537   90.79%
     67    69      778.2447   219     7359.0000      678.1106   347439   90.79%
Elapsed time = 37.54 sec. (52988.68 ticks, tree = 1.17 MB, solutions = 8)
     70    72      780.2638   220     7359.0000      678.1106   354953   90.79%
     74    76      822.7563   192     7359.0000      678.1106   363123   90.79%
     76    78      785.4118   188     7359.0000      678.1106   368974   90.79%
     79    81      785.4118   188     7359.0000      678.1106   375119   90.79%
     80    82      705.5371   203     7359.0000      678.1106   375606   90.79%
     81    83      812.6887   204     7359.0000      678.1106   383462   90.79%
     84    86      798.2678   184     7359.0000      678.1106   392535   90.79%
     86    88      797.3709   217     7359.0000      678.1106   399214   90.79%
     91    93      826.3240   218     7359.0000      678.1106   404899   90.79%
     94    96      816.3963   204     7359.0000      678.1106   411183   90.79%
Elapsed time = 46.58 sec. (67035.33 ticks, tree = 1.80 MB, solutions = 8)
     96    98      791.6111   213     7359.0000      678.1106   416819   90.79%
     99   101      806.3410   182     7359.0000      678.1106   426637   90.79%
    101   103      817.3172   206     7359.0000      678.1106   435221   90.79%
    104   106      820.0351   182     7359.0000      678.1106   443769   90.79%
    106   108      815.2247   201     7359.0000      678.1106   450707   90.79%
    111   113      822.9993   222     7359.0000      678.1106   458701   90.79%
    117   119      827.0689   208     7359.0000      678.1106   468325   90.79%
    121   123      810.7598   200     7359.0000      678.1106   478003   90.79%
    125   127      805.4269   218     7359.0000      678.1106   486229   90.79%
    127   129      801.2248   216     7359.0000      678.1106   493775   90.79%
Elapsed time = 55.79 sec. (81250.07 ticks, tree = 2.41 MB, solutions = 8)
    130   132      803.1600   237     7359.0000      678.1106   500845   90.79%
    132   134      791.7215   184     7359.0000      678.1106   507789   90.79%
    136   138      807.7792   200     7359.0000      678.1106   515044   90.79%
    138   140      797.9109   202     7359.0000      678.1106   520840   90.79%
    140   142      798.9670   250     7359.0000      678.1106   528634   90.79%
    145   147      857.4884   234     7359.0000      678.1106   536197   90.79%
    148   150      801.5872   249     7359.0000      678.1106   543405   90.79%
    154   156      729.6614   216     7359.0000      678.1106   549409   90.79%
    158   160      844.3738   209     7359.0000      678.1106   558519   90.79%
    160   162      835.4587   213     7359.0000      678.1106   566368   90.79%
Elapsed time = 64.01 sec. (93750.15 ticks, tree = 2.58 MB, solutions = 8)
    163   165      825.1095   220     7359.0000      678.1106   572986   90.79%
    165   167      824.1782   190     7359.0000      678.1106   581094   90.79%
    170   172      836.0400   208     7359.0000      678.1106   588802   90.79%
    174   176      824.1946   193     7359.0000      678.1106   596281   90.79%
    178   180      798.4059   240     7359.0000      678.1106   606268   90.79%
    180   182      856.3075   205     7359.0000      678.1106   613883   90.79%
    187   189      852.5172   206     7359.0000      678.1106   626880   90.79%
    190   192      823.2183   215     7359.0000      678.1106   634357   90.79%
    195   197      848.6339   224     7359.0000      678.1106   646340   90.79%
    199   201      875.3260   254     7359.0000      678.1106   654882   90.79%
Elapsed time = 72.94 sec. (107080.74 ticks, tree = 2.78 MB, solutions = 8)
    202   204      816.6311   199     7359.0000      678.1106   661475   90.79%
    211   213      828.2082   242     7359.0000      678.1106   673772   90.79%
    213   215      860.3441   218     7359.0000      678.1106   681203   90.79%
    215   217      859.7493   201     7359.0000      678.1106   687295   90.79%
    219   221      833.3020   209     7359.0000      678.1106   699578   90.79%
    226   228      832.5279   232     7359.0000      678.1106   710349   90.79%
    229   231      836.8034   238     7359.0000      678.1106   716933   90.79%
    231   233      846.0686   208     7359.0000      678.1106   723730   90.79%
    237   239      826.8197   199     7359.0000      678.1106   734130   90.79%
    246   248      834.9838   210     7359.0000      678.1106   743502   90.79%
Elapsed time = 82.30 sec. (121077.53 ticks, tree = 3.03 MB, solutions = 8)
    249   251      884.1240   204     7359.0000      678.1106   749891   90.79%
    254   256      870.2837   175     7359.0000      678.1106   761137   90.79%
    260   262      852.5947   223     7359.0000      678.1106   771239   90.79%
    267   269      846.4844   221     7359.0000      678.1106   780795   90.79%
    275   277      844.2584   244     7359.0000      678.1106   786312   90.79%
    289   291      798.0934   231     7359.0000      678.1106   791428   90.79%
    300   302      953.2232   223     7359.0000      678.1106   799633   90.79%
    314   316      940.4379   201     7359.0000      678.1106   805866   90.79%
    319   321      990.6212   218     7359.0000      678.1106   813641   90.79%
    326   328     1084.4987   189     7359.0000      678.1106   819646   90.79%
Elapsed time = 91.10 sec. (134536.49 ticks, tree = 3.54 MB, solutions = 8)
    331   333      853.5710   225     7359.0000      678.1106   826635   90.79%
    358   360      892.1469   246     7359.0000      678.1106   831710   90.79%
    374   376      951.9800   211     7359.0000      678.1106   839821   90.79%
    393   395      878.5781   233     7359.0000      678.1106   846204   90.79%
    400   402      874.7692   195     7359.0000      678.1106   846834   90.79%
    412   414      986.2871   172     7359.0000      678.1106   854960   90.79%
    416   418     1065.5578   158     7359.0000      678.1106   864702   90.79%
    435   437     1233.4794   178     7359.0000      678.1106   873146   90.79%
*   440+  440                         4982.0000      678.1106            86.39%
    443   445     1230.1476   153     4982.0000      678.1106   879609   86.39%
    476   478     1801.6872    85     4982.0000      678.1106   900947   86.39%
Elapsed time = 100.88 sec. (148665.25 ticks, tree = 4.93 MB, solutions = 9)
*   554+  522                         4020.0000      678.1106            83.13%
*   554+  514                         3572.0000      678.1106            81.02%
*   554+  514                         3537.0000      678.1106            80.83%
    554   516      757.3560   196     3537.0000      678.1106   924583   80.83%
    602   564      865.6244   118     3537.0000      678.1106   941669   80.83%
    643   605     1011.8688    91     3537.0000      678.1106   960286   80.83%
    666   614     1935.8836   165     3537.0000      678.1106   983259   80.83%
    730   650     2283.1765   177     3537.0000      678.1106  1004395   80.83%
    742   654      748.7552   200     3537.0000      683.3789  1029463   80.68%
    752   664      890.8629   256     3537.0000      683.8673  1050227   80.67%
    777   689     1096.5268   214     3537.0000      683.8673  1071399   80.67%
    802   714      748.8547   198     3537.0000      686.6176  1093238   80.59%
    839   751      917.3089   189     3537.0000      686.6176  1118012   80.59%
Elapsed time = 127.78 sec. (188945.56 ticks, tree = 7.41 MB, solutions = 12)
    880   790      803.3174   190     3537.0000      686.6176  1135855   80.59%
    916   826     1013.3466   207     3537.0000      686.6176  1160238   80.59%
    951   861     1144.6553   189     3537.0000      686.6176  1181964   80.59%
    976   886     1710.9532   160     3537.0000      686.6176  1202178   80.59%
    994   904     2149.0969   169     3537.0000      686.6176  1225218   80.59%
*  1000+  903                         3405.0000      686.6176            79.84%
*  1000+  898                         3217.0000      686.6176            78.66%
*  1000+  858                         2116.0000      686.6176            67.55%
*  1000+  854                         2005.0000      686.6176            65.75%
*  1000+  854                         1969.0000      686.6176            65.13%
*  1000+  848                         1882.0000      686.6176            63.52%
   1012   860      854.5764   180     1882.0000      689.7083  1246904   63.35%
   1048   896     1189.7917   243     1882.0000      689.7083  1275203   63.35%
   1093   941     1515.5120   268     1882.0000      689.7083  1303070   63.35%

Performing restart 1

Repeating presolve.
Tried aggregator 1 time.
MIP Presolve eliminated 1 rows and 0 columns.
MIP Presolve modified 6840 coefficients.
Reduced MIP has 6902 rows, 12840 columns, and 38220 nonzeros.
Reduced MIP has 6540 binaries, 6300 generals, 0 SOSs, and 0 indicators.
Presolve time = 0.07 sec. (51.65 ticks)
Tried aggregator 1 time.
Reduced MIP has 6902 rows, 12840 columns, and 38220 nonzeros.
Reduced MIP has 6540 binaries, 6300 generals, 0 SOSs, and 0 indicators.
Presolve time = 0.03 sec. (24.79 ticks)
Represolve time = 0.23 sec. (164.18 ticks)
   1110     0      841.3825   154     1882.0000     Cuts: 123  1317791   55.29%
   1110     0      977.2424   154     1882.0000     Cuts: 220  1320293   48.07%
   1110     0     1095.2528   154     1882.0000     Cuts: 199  1322892   41.80%
*  1110+    0                         1663.0000     1095.2528            34.14%
*  1110+    0                         1547.0000     1095.2528            29.20%
*  1110+    0                         1541.0000     1095.2528            28.93%
   1110     0  -1.00000e+75     0     1541.0000     1095.2528  1322892   28.93%

Repeating presolve.
Tried aggregator 1 time.
MIP Presolve eliminated 3105 rows and 6210 columns.
MIP Presolve modified 305 coefficients.
Reduced MIP has 3797 rows, 6630 columns, and 19590 nonzeros.
Reduced MIP has 3435 binaries, 3195 generals, 0 SOSs, and 0 indicators.
Presolve time = 0.02 sec. (12.82 ticks)
Tried aggregator 1 time.
Reduced MIP has 3797 rows, 6630 columns, and 19590 nonzeros.
Reduced MIP has 3435 binaries, 3195 generals, 0 SOSs, and 0 indicators.
Presolve time = 0.01 sec. (12.90 ticks)
Represolve time = 0.10 sec. (97.07 ticks)
   1110     0     1165.0028   249     1541.0000     Cuts: 217  1327534   24.40%
   1110     0     1196.5370   249     1541.0000     Cuts: 233  1328304   22.35%
   1110     0     1241.5697   249     1541.0000     Cuts: 185  1328998   19.43%
*  1110+    0                         1461.0000     1241.5697            15.02%
*  1110+    0                         1460.0000     1241.5697            14.96%
   1110     0  -1.00000e+75     0     1460.0000     1241.5697  1328998   14.96%
   1110     0     1258.5915   249     1460.0000     Cuts: 184  1329474   13.80%
   1110     0     1276.0074   249     1460.0000     Cuts: 186  1329941   12.60%
   1110     0     1293.9297   249     1460.0000     Cuts: 212  1330816   11.37%
   1110     0     1305.9865   249     1460.0000     Cuts: 275  1331223   10.55%
   1110     0     1317.8347   249     1460.0000     Cuts: 126  1332264    9.74%
   1110     0     1326.1236   249     1460.0000     Cuts: 266  1332870    9.17%
   1110     0     1332.1743   249     1460.0000     Cuts: 237  1333481    8.76%
   1110     0     1333.4697   249     1460.0000     Cuts: 127  1333898    8.67%
   1110     0     1334.0932   249     1460.0000     Cuts: 147  1334017    8.62%
   1110     0     1334.6105   249     1460.0000      Cuts: 54  1334375    8.59%
   1110     0     1334.6400   249     1460.0000      Cuts: 72  1334536    8.59%
   1110     0     1334.6974   249     1460.0000      Cuts: 18  1334686    8.58%
   1110     0     1334.7187   249     1460.0000      Cuts: 35  1334950    8.58%
*  1110+    0                         1335.0000     1334.7187             0.02%
   1110     0        cutoff           1335.0000     1334.7187  1334950    0.02%

GUB cover cuts applied:  90
Clique cuts applied:  8
Cover cuts applied:  53
Implied bound cuts applied:  78
Flow cuts applied:  328
Mixed integer rounding cuts applied:  242
Zero-half cuts applied:  62
Lift and project cuts applied:  25
Gomory fractional cuts applied:  19

Root node processing (before b&c):
  Real time             =    4.07 sec. (5401.69 ticks)
Sequential b&c:
  Real time             =  152.28 sec. (223282.39 ticks)
                          ------------
Total (root+branch&cut) =  156.35 sec. (228684.08 ticks)
SOLUTION:

x(0,62)[0..1]  = 1
x(5,210)[0..1]  = 1
x(10,44)[0..1]  = 1
x(22,105)[0..1]  = 1
x(33,172)[0..1]  = 1
x(44,260)[0..1]  = 1
x(44,254)[0..1]  = 1
x(61,264)[0..1]  = 1
x(62,276)[0..1]  = 1
x(72,268)[0..1]  = 1
x(74,87)[0..1]  = 1
x(83,287)[0..1]  = 1
x(84,158)[0..1]  = 1
x(91,135)[0..1]  = 1
x(103,111)[0..1]  = 1
x(105,291)[0..1]  = 1
x(130,270)[0..1]  = 1
x(135,217)[0..1]  = 1
x(147,234)[0..1]  = 1
x(158,195)[0..1]  = 1
x(171,189)[0..1]  = 1
x(171,225)[0..1]  = 1
x(210,229)[0..1]  = 1
x(225,263)[0..1]  = 1
x(225,269)[0..1]  = 1
x(291,299)[0..1]  = 1
x(44,5)[0..1]  = 1
x(86,10)[0..1]  = 1
x(65,22)[0..1]  = 1
x(171,23)[0..1]  = 1
x(33,29)[0..1]  = 1
x(229,33)[0..1]  = 1
x(249,49)[0..1]  = 1
x(276,61)[0..1]  = 1
x(264,65)[0..1]  = 1
x(103,72)[0..1]  = 1
x(203,73)[0..1]  = 1
x(136,74)[0..1]  = 1
x(210,76)[0..1]  = 1
x(147,83)[0..1]  = 1
x(210,84)[0..1]  = 1
x(268,86)[0..1]  = 1
x(147,91)[0..1]  = 1
x(203,102)[0..1]  = 1
x(183,103)[0..1]  = 1
x(177,130)[0..1]  = 1
x(287,136)[0..1]  = 1
x(210,140)[0..1]  = 1
x(263,147)[0..1]  = 1
x(254,149)[0..1]  = 1
x(291,164)[0..1]  = 1
x(217,168)[0..1]  = 1
x(260,171)[0..1]  = 1
x(263,177)[0..1]  = 1
x(299,183)[0..1]  = 1
x(287,198)[0..1]  = 1
x(270,203)[0..1]  = 1
x(225,207)[0..1]  = 1
x(217,212)[0..1]  = 1
x(299,249)[0..1]  = 1
z(5)[0..1]  = 1
z(10)[0..1]  = 1
z(22)[0..1]  = 1
z(23)[0..1]  = 1
z(29)[0..1]  = 1
z(33)[0..1]  = 1
z(44)[0..1]  = 1
z(49)[0..1]  = 1
z(61)[0..1]  = 1
z(62)[0..1]  = 1
z(65)[0..1]  = 1
z(72)[0..1]  = 1
z(73)[0..1]  = 1
z(74)[0..1]  = 1
z(76)[0..1]  = 1
z(83)[0..1]  = 1
z(84)[0..1]  = 1
z(86)[0..1]  = 1
z(87)[0..1]  = 1
z(91)[0..1]  = 1
z(102)[0..1]  = 1
z(103)[0..1]  = 1
z(105)[0..1]  = 1
z(111)[0..1]  = 1
z(130)[0..1]  = 1
z(135)[0..1]  = 1
z(136)[0..1]  = 1
z(140)[0..1]  = 1
z(147)[0..1]  = 1
z(149)[0..1]  = 1
z(158)[0..1]  = 1
z(164)[0..1]  = 1
z(168)[0..1]  = 1
z(171)[0..1]  = 1
z(172)[0..1]  = 1
z(177)[0..1]  = 1
z(183)[0..1]  = 1
z(189)[0..1]  = 1
z(195)[0..1]  = 1
z(198)[0..1]  = 1
z(203)[0..1]  = 1
z(207)[0..1]  = 1
z(210)[0..1]  = 1
z(212)[0..1]  = 1
z(217)[0..1]  = 1
z(225)[0..1]  = 1
z(229)[0..1]  = 1
z(234)[0..1]  = 1
z(249)[0..1]  = 1
z(254)[0..1]  = 1
z(260)[0..1]  = 1
z(263)[0..1]  = 1
z(264)[0..1]  = 1
z(268)[0..1]  = 1
z(269)[0..1]  = 1
z(270)[0..1]  = 1
z(276)[0..1]  = 1
z(287)[0..1]  = 1
z(291)[0..1]  = 1
z(299)[0..1]  = 1


CPLEX finished.

CPLEX status: Optimal
Branch-and-Bound nodes: 1110
Objective value: 1335
CPU time: 156.25

